0 4 0 1 3 0 4 2 1 1 2 1 3 13
4 0 1 2 1 1 2 5 0 1 2 0 5 12
4 0 2 2 1 3 1 5 0 4 0 5 0 11
1 2 3 0 5 4 0 5 0 3 1 2 1 10
3 1 4 5 0 1 2 5 0 1 2 0 5 9
1 2 5 0 5 1 2 0 5 4 0 0 5 8
3 1 6 5 0 4 0 2 1 3 1 0 5 7
4 0 7 2 1 1 2 2 1 1 2 0 5 6
1 2 8 0 5 0 4 5 0 4 0 0 5 5
4 0 9 2 1 3 1 0 5 4 0 5 0 4
1 2 10 0 5 4 0 2 1 3 1 2 1 3
3 1 11 5 0 1 2 2 1 1 2 0 5 2
3 1 12 5 0 3 1 1 3 0 4 5 0 1
4 0 13 2 1 3 1 5 0 4 0 5 0 14
7 6 4 5 9 3 2 1 5 7 5 3 2 4 